# Solution for model micodag
# Objective value = 2.4736760265033510e+01
s_0_1 0
s_1_0 0
s_0_2 0
s_2_0 7.7594027183657062e+00
s_0_3 0
s_3_0 7.7594027183657062e+00
s_0_4 0
s_4_0 7.7594027183657062e+00
s_0_5 0
s_5_0 7.7594027183657062e+00
s_0_6 0
s_6_0 7.7594027183657062e+00
s_0_7 0
s_7_0 7.7594027183657062e+00
s_0_8 0
s_8_0 7.7594027183657062e+00
s_0_9 0
s_9_0 7.7594027183657062e+00
s_0_10 0
s_10_0 7.7594027183657062e+00
s_0_11 0
s_11_0 7.7594027183657062e+00
s_0_12 0
s_12_0 7.7594027183657062e+00
s_0_13 0
s_13_0 7.7594027183657062e+00
s_0_14 0
s_14_0 7.7594027183657062e+00
s_0_15 0
s_15_0 7.7594027183657062e+00
s_0_16 0
s_16_0 7.7594027183657062e+00
s_0_17 0
s_17_0 7.7594027183657062e+00
s_0_18 0
s_18_0 7.7594027183657062e+00
s_0_19 0
s_19_0 7.7594027183657062e+00
s_0_20 0
s_20_0 7.7594027183657062e+00
s_0_21 0
s_21_0 7.7594027183657062e+00
s_0_22 0
s_22_0 7.7594027183657062e+00
s_0_23 0
s_23_0 7.7594027183657062e+00
s_0_24 0
s_24_0 7.7594027183657062e+00
s_0_25 0
s_25_0 7.7594027183657062e+00
s_0_26 0
s_26_0 7.7594027183657062e+00
s_1_2 0
s_2_1 0
s_1_3 0
s_3_1 7.7594027183657062e+00
s_1_4 0
s_4_1 0
s_1_5 0
s_5_1 7.7594027183657062e+00
s_1_6 0
s_6_1 0
s_1_7 0
s_7_1 7.7594027183657062e+00
s_1_8 0
s_8_1 0
s_1_9 0
s_9_1 7.7594027183657062e+00
s_1_10 0
s_10_1 0
s_1_11 0
s_11_1 7.7594027183657062e+00
s_1_12 0
s_12_1 0
s_1_13 0
s_13_1 7.7594027183657062e+00
s_1_15 0
s_15_1 7.7594027183657062e+00
s_1_17 0
s_17_1 7.7594027183657062e+00
s_1_19 0
s_19_1 7.7594027183657062e+00
s_1_21 0
s_21_1 7.7594027183657062e+00
s_1_23 0
s_23_1 7.7594027183657062e+00
s_1_25 0
s_25_1 7.7594027183657062e+00
s_2_3 0
s_3_2 0
s_2_4 0
s_4_2 0
s_2_5 0
s_5_2 2.4333388060493633e-01
s_2_6 0
s_6_2 0
s_2_7 0
s_7_2 0
s_2_8 0
s_8_2 4.0593125460164359e-01
s_2_11 0
s_11_2 7.8398125316425471e-01
s_2_14 0
s_14_2 4.5398283180000210e-01
s_2_17 0
s_17_2 4.1882325955994748e-01
s_2_20 0
s_20_2 2.3430510862939968e-01
s_2_23 0
s_23_2 6.4081168301364855e-01
s_2_26 0
s_26_2 6.6352178171850440e-01
s_3_4 0
s_4_3 0
s_3_5 0
s_5_3 0
s_3_7 0
s_7_3 7.7594027183657062e+00
s_3_9 0
s_9_3 0
s_3_11 0
s_11_3 7.7594027183657062e+00
s_3_15 0
s_15_3 7.7594027183657062e+00
s_3_19 0
s_19_3 7.7594027183657062e+00
s_3_23 0
s_23_3 7.7594027183657062e+00
s_4_9 0
s_9_4 2.7537595574271112e-01
s_4_14 0
s_14_4 3.9926893448515255e-01
s_4_19 0
s_19_4 8.3606602969862021e-01
s_4_24 0
s_24_4 0.696369066038419
s_5_7 0
s_7_5 0
s_5_8 0
s_8_5 0
s_5_11 0
s_11_5 6.9278755246228130e-01
s_5_17 0
s_17_5 3.8843138340992311e-01
s_5_23 0
s_23_5 1.2196005193196910e+00
s_6_13 0
s_13_6 1.1613084665691122e+00
s_6_20 0
s_20_6 0.190974072167311
s_7_11 0
s_11_7 0
s_7_15 0
s_15_7 0.350524429816625
s_7_23 0
s_23_7 7.3623234706756691e-01
s_8_17 0
s_17_8 7.7594027183657062e+00
s_8_26 0
s_26_8 7.7594027183657062e+00
s_9_19 0
s_19_9 1.23867665180439
s_10_21 0
s_21_10 1.1682892746146027e+00
s_11_23 0
s_23_11 1.4333713932918721e+00
s_12_25 0
s_25_12 5.5084907898671354e-01
s_0_0 7.7594027183657062e+00
s_1_1 7.7594027183657062e+00
s_2_2 1.8616697212428353e+00
s_3_3 7.7594027183657062e+00
s_4_4 2.0377494671677274e+00
s_5_5 6.6101635503000278e-01
s_6_6 6.5154221406801138e-01
s_7_7 1.0631205211656045e+00
s_8_8 7.7594027183657062e+00
s_9_9 6.3475918788378216e-01
s_10_10 0.590490325676253
s_11_11 1.8777792111861915e+00
s_12_12 1.9616816630482159e+00
s_13_13 1.9725216256384970e+00
s_14_14 1.0014814415827402e+00
s_15_15 0.989353618312931
s_16_16 9.6253270812178293e-01
s_17_17 1.0446176334888975e+00
s_18_18 6.0743549292713972e-01
s_19_19 2.0318293055519057e+00
s_20_20 6.5389799552297934e-01
s_21_21 1.9010323576691732e+00
s_22_22 1.9624647155618877e+00
s_23_23 1.9964817790188807e+00
s_24_24 2.0396346165792378e+00
s_25_25 9.6716774624529211e-01
s_26_26 1.9504517693238776e+00
Gamma_0_0 1.4325571356652058e+00
Gamma_0_1 0
Gamma_0_2 0
Gamma_0_3 0
Gamma_0_4 0
Gamma_0_5 0
Gamma_0_6 0
Gamma_0_7 0
Gamma_0_8 0
Gamma_0_9 0
Gamma_0_10 0
Gamma_0_11 0
Gamma_0_12 0
Gamma_0_13 0
Gamma_0_14 0
Gamma_0_15 0
Gamma_0_16 0
Gamma_0_17 0
Gamma_0_18 0
Gamma_0_19 0
Gamma_0_20 0
Gamma_0_21 0
Gamma_0_22 0
Gamma_0_23 0
Gamma_0_24 0
Gamma_0_25 0
Gamma_0_26 0
Gamma_1_0 0
Gamma_1_1 0.807049016743946
Gamma_1_2 0
Gamma_1_3 0
Gamma_1_4 0
Gamma_1_5 0
Gamma_1_6 0
Gamma_1_7 0
Gamma_1_8 0
Gamma_1_9 0
Gamma_1_10 0
Gamma_1_11 0
Gamma_1_12 0
Gamma_1_13 0
Gamma_1_14 0
Gamma_1_15 0
Gamma_1_16 0
Gamma_1_17 0
Gamma_1_18 0
Gamma_1_19 0
Gamma_1_20 0
Gamma_1_21 0
Gamma_1_22 0
Gamma_1_23 0
Gamma_1_24 0
Gamma_1_25 0
Gamma_1_26 0
Gamma_2_0 -7.8246871188722777e-01
Gamma_2_1 0
Gamma_2_2 1.3644301818865032e+00
Gamma_2_3 0
Gamma_2_4 0
Gamma_2_5 0
Gamma_2_6 0
Gamma_2_7 0
Gamma_2_8 0
Gamma_2_9 0
Gamma_2_10 0
Gamma_2_11 0
Gamma_2_12 0
Gamma_2_13 0
Gamma_2_14 0
Gamma_2_15 0
Gamma_2_16 0
Gamma_2_17 0
Gamma_2_18 0
Gamma_2_19 0
Gamma_2_20 0
Gamma_2_21 0
Gamma_2_22 0
Gamma_2_23 0
Gamma_2_24 0
Gamma_2_25 0
Gamma_2_26 0
Gamma_3_0 0.724306408084322
Gamma_3_1 6.0612056044555218e-01
Gamma_3_2 0
Gamma_3_3 1.0010450052570905e+00
Gamma_3_4 0
Gamma_3_5 0
Gamma_3_6 0
Gamma_3_7 0
Gamma_3_8 0
Gamma_3_9 0
Gamma_3_10 0
Gamma_3_11 0
Gamma_3_12 0
Gamma_3_13 0
Gamma_3_14 0
Gamma_3_15 0
Gamma_3_16 0
Gamma_3_17 0
Gamma_3_18 0
Gamma_3_19 0
Gamma_3_20 0
Gamma_3_21 0
Gamma_3_22 0
Gamma_3_23 0
Gamma_3_24 0
Gamma_3_25 0
Gamma_3_26 0
Gamma_4_0 8.9484638441351727e-01
Gamma_4_1 0
Gamma_4_2 0
Gamma_4_3 0
Gamma_4_4 1.4274976242248978e+00
Gamma_4_5 0
Gamma_4_6 0
Gamma_4_7 0
Gamma_4_8 0
Gamma_4_9 0
Gamma_4_10 0
Gamma_4_11 0
Gamma_4_12 0
Gamma_4_13 0
Gamma_4_14 0
Gamma_4_15 0
Gamma_4_16 0
Gamma_4_17 0
Gamma_4_18 0
Gamma_4_19 0
Gamma_4_20 0
Gamma_4_21 0
Gamma_4_22 0
Gamma_4_23 0
Gamma_4_24 0
Gamma_4_25 0
Gamma_4_26 0
Gamma_5_0 6.1987602211969683e-01
Gamma_5_1 6.4517505813845610e-01
Gamma_5_2 -4.9328884094913183e-01
Gamma_5_3 0
Gamma_5_4 0
Gamma_5_5 8.1302912311306708e-01
Gamma_5_6 0
Gamma_5_7 0
Gamma_5_8 0
Gamma_5_9 0
Gamma_5_10 0
Gamma_5_11 0
Gamma_5_12 0
Gamma_5_13 0
Gamma_5_14 0
Gamma_5_15 0
Gamma_5_16 0
Gamma_5_17 0
Gamma_5_18 0
Gamma_5_19 0
Gamma_5_20 0
Gamma_5_21 0
Gamma_5_22 0
Gamma_5_23 0
Gamma_5_24 0
Gamma_5_25 0
Gamma_5_26 0
Gamma_6_0 -4.9651390381803107e-01
Gamma_6_1 0
Gamma_6_2 0
Gamma_6_3 0
Gamma_6_4 0
Gamma_6_5 0
Gamma_6_6 8.0718164874333764e-01
Gamma_6_7 0
Gamma_6_8 0
Gamma_6_9 0
Gamma_6_10 0
Gamma_6_11 0
Gamma_6_12 0
Gamma_6_13 0
Gamma_6_14 0
Gamma_6_15 0
Gamma_6_16 0
Gamma_6_17 0
Gamma_6_18 0
Gamma_6_19 0
Gamma_6_20 0
Gamma_6_21 0
Gamma_6_22 0
Gamma_6_23 0
Gamma_6_24 0
Gamma_6_25 0
Gamma_6_26 0
Gamma_7_0 -5.9730719557186962e-01
Gamma_7_1 -6.1034615419821570e-01
Gamma_7_2 0
Gamma_7_3 8.2674343361840419e-01
Gamma_7_4 0
Gamma_7_5 0
Gamma_7_6 0
Gamma_7_7 1.0310773594476821e+00
Gamma_7_8 0
Gamma_7_9 0
Gamma_7_10 0
Gamma_7_11 0
Gamma_7_12 0
Gamma_7_13 0
Gamma_7_14 0
Gamma_7_15 0
Gamma_7_16 0
Gamma_7_17 0
Gamma_7_18 0
Gamma_7_19 0
Gamma_7_20 0
Gamma_7_21 0
Gamma_7_22 0
Gamma_7_23 0
Gamma_7_24 0
Gamma_7_25 0
Gamma_7_26 0
Gamma_8_0 5.9825113793229856e-01
Gamma_8_1 0
Gamma_8_2 0.637127345670899
Gamma_8_3 0
Gamma_8_4 0
Gamma_8_5 0
Gamma_8_6 0
Gamma_8_7 0
Gamma_8_8 9.6534414529749313e-01
Gamma_8_9 0
Gamma_8_10 0
Gamma_8_11 0
Gamma_8_12 0
Gamma_8_13 0
Gamma_8_14 0
Gamma_8_15 0
Gamma_8_16 0
Gamma_8_17 0
Gamma_8_18 0
Gamma_8_19 0
Gamma_8_20 0
Gamma_8_21 0
Gamma_8_22 0
Gamma_8_23 0
Gamma_8_24 0
Gamma_8_25 0
Gamma_8_26 0
Gamma_9_0 3.9496543894718666e-01
Gamma_9_1 -6.3502030039588075e-01
Gamma_9_2 0
Gamma_9_3 0
Gamma_9_4 -5.2476276139100519e-01
Gamma_9_5 0
Gamma_9_6 0
Gamma_9_7 0
Gamma_9_8 0
Gamma_9_9 7.9671775923709920e-01
Gamma_9_10 0
Gamma_9_11 0
Gamma_9_12 0
Gamma_9_13 0
Gamma_9_14 0
Gamma_9_15 0
Gamma_9_16 0
Gamma_9_17 0
Gamma_9_18 0
Gamma_9_19 0
Gamma_9_20 0
Gamma_9_21 0
Gamma_9_22 0
Gamma_9_23 0
Gamma_9_24 0
Gamma_9_25 0
Gamma_9_26 0
Gamma_10_0 -0.456926263232387
Gamma_10_1 0
Gamma_10_2 0
Gamma_10_3 0
Gamma_10_4 0
Gamma_10_5 0
Gamma_10_6 0
Gamma_10_7 0
Gamma_10_8 0
Gamma_10_9 0
Gamma_10_10 7.6843368333009388e-01
Gamma_10_11 0
Gamma_10_12 0
Gamma_10_13 0
Gamma_10_14 0
Gamma_10_15 0
Gamma_10_16 0
Gamma_10_17 0
Gamma_10_18 0
Gamma_10_19 0
Gamma_10_20 0
Gamma_10_21 0
Gamma_10_22 0
Gamma_10_23 0
Gamma_10_24 0
Gamma_10_25 0
Gamma_10_26 0
Gamma_11_0 -8.3502649527183725e-01
Gamma_11_1 8.1098425096534577e-01
Gamma_11_2 8.8542715858745624e-01
Gamma_11_3 8.2633244581843823e-01
Gamma_11_4 0
Gamma_11_5 0.832338604452709
Gamma_11_6 0
Gamma_11_7 0
Gamma_11_8 0
Gamma_11_9 0
Gamma_11_10 0
Gamma_11_11 1.3703208424256681e+00
Gamma_11_12 0
Gamma_11_13 0
Gamma_11_14 0
Gamma_11_15 0
Gamma_11_16 0
Gamma_11_17 0
Gamma_11_18 0
Gamma_11_19 0
Gamma_11_20 0
Gamma_11_21 0
Gamma_11_22 0
Gamma_11_23 0
Gamma_11_24 0
Gamma_11_25 0
Gamma_11_26 0
Gamma_12_0 1.1161374254979186e+00
Gamma_12_1 0
Gamma_12_2 0
Gamma_12_3 0
Gamma_12_4 0
Gamma_12_5 0
Gamma_12_6 0
Gamma_12_7 0
Gamma_12_8 0
Gamma_12_9 0
Gamma_12_10 0
Gamma_12_11 0
Gamma_12_12 1.4006004651749251e+00
Gamma_12_13 0
Gamma_12_14 0
Gamma_12_15 0
Gamma_12_16 0
Gamma_12_17 0
Gamma_12_18 0
Gamma_12_19 0
Gamma_12_20 0
Gamma_12_21 0
Gamma_12_22 0
Gamma_12_23 0
Gamma_12_24 0
Gamma_12_25 0
Gamma_12_26 0
Gamma_13_0 1.0604455837570754e+00
Gamma_13_1 8.1953636449989675e-01
Gamma_13_2 0
Gamma_13_3 0
Gamma_13_4 0
Gamma_13_5 0
Gamma_13_6 -1.0776402305821338e+00
Gamma_13_7 0
Gamma_13_8 0
Gamma_13_9 0
Gamma_13_10 0
Gamma_13_11 0
Gamma_13_12 0
Gamma_13_13 1.4044648894288876e+00
Gamma_13_14 0
Gamma_13_15 0
Gamma_13_16 0
Gamma_13_17 0
Gamma_13_18 0
Gamma_13_19 0
Gamma_13_20 0
Gamma_13_21 0
Gamma_13_22 0
Gamma_13_23 0
Gamma_13_24 0
Gamma_13_25 0
Gamma_13_26 0
Gamma_14_0 8.4129238842071485e-01
Gamma_14_1 0
Gamma_14_2 0.673782481072344
Gamma_14_3 0
Gamma_14_4 -6.3187730967740452e-01
Gamma_14_5 0
Gamma_14_6 0
Gamma_14_7 0
Gamma_14_8 0
Gamma_14_9 0
Gamma_14_10 0
Gamma_14_11 0
Gamma_14_12 0
Gamma_14_13 0
Gamma_14_14 1.0007404466607421e+00
Gamma_14_15 0
Gamma_14_16 0
Gamma_14_17 0
Gamma_14_18 0
Gamma_14_19 0
Gamma_14_20 0
Gamma_14_21 0
Gamma_14_22 0
Gamma_14_23 0
Gamma_14_24 0
Gamma_14_25 0
Gamma_14_26 0
Gamma_15_0 6.5842048422182686e-01
Gamma_15_1 -5.5663903281919980e-01
Gamma_15_2 0
Gamma_15_3 7.9020887305666909e-01
Gamma_15_4 0
Gamma_15_5 0
Gamma_15_6 0
Gamma_15_7 5.9205103649653934e-01
Gamma_15_8 0
Gamma_15_9 0
Gamma_15_10 0
Gamma_15_11 0
Gamma_15_12 0
Gamma_15_13 0
Gamma_15_14 0
Gamma_15_15 9.9466256505054640e-01
Gamma_15_16 0
Gamma_15_17 0
Gamma_15_18 0
Gamma_15_19 0
Gamma_15_20 0
Gamma_15_21 0
Gamma_15_22 0
Gamma_15_23 0
Gamma_15_24 0
Gamma_15_25 0
Gamma_15_26 0
Gamma_16_0 5.8480780703580759e-01
Gamma_16_1 0
Gamma_16_2 0
Gamma_16_3 0
Gamma_16_4 0
Gamma_16_5 0
Gamma_16_6 0
Gamma_16_7 0
Gamma_16_8 0
Gamma_16_9 0
Gamma_16_10 0
Gamma_16_11 0
Gamma_16_12 0
Gamma_16_13 0
Gamma_16_14 0
Gamma_16_15 0
Gamma_16_16 9.8108751297821806e-01
Gamma_16_17 0
Gamma_16_18 0
Gamma_16_19 0
Gamma_16_20 0
Gamma_16_21 0
Gamma_16_22 0
Gamma_16_23 0
Gamma_16_24 0
Gamma_16_25 0
Gamma_16_26 0
Gamma_17_0 5.7427658988312080e-01
Gamma_17_1 -0.805958440286201
Gamma_17_2 6.4716555807609977e-01
Gamma_17_3 0
Gamma_17_4 0
Gamma_17_5 -6.2324263606554120e-01
Gamma_17_6 0
Gamma_17_7 0
Gamma_17_8 8.2135410672142228e-01
Gamma_17_9 0
Gamma_17_10 0
Gamma_17_11 0
Gamma_17_12 0
Gamma_17_13 0
Gamma_17_14 0
Gamma_17_15 0
Gamma_17_16 0
Gamma_17_17 1.0220653763281971e+00
Gamma_17_18 0
Gamma_17_19 0
Gamma_17_20 0
Gamma_17_21 0
Gamma_17_22 0
Gamma_17_23 0
Gamma_17_24 0
Gamma_17_25 0
Gamma_17_26 0
Gamma_18_0 4.5968021939077519e-01
Gamma_18_1 0
Gamma_18_2 0
Gamma_18_3 0
Gamma_18_4 0
Gamma_18_5 0
Gamma_18_6 0
Gamma_18_7 0
Gamma_18_8 0
Gamma_18_9 0
Gamma_18_10 0
Gamma_18_11 0
Gamma_18_12 0
Gamma_18_13 0
Gamma_18_14 0
Gamma_18_15 0
Gamma_18_16 0
Gamma_18_17 0
Gamma_18_18 7.7938148100089066e-01
Gamma_18_19 0
Gamma_18_20 0
Gamma_18_21 0
Gamma_18_22 0
Gamma_18_23 0
Gamma_18_24 0
Gamma_18_25 0
Gamma_18_26 0
Gamma_19_0 -8.0463264868211770e-01
Gamma_19_1 8.9489399704000716e-01
Gamma_19_2 0
Gamma_19_3 -1.1406929032170554e+00
Gamma_19_4 9.1436646356842077e-01
Gamma_19_5 0
Gamma_19_6 0
Gamma_19_7 0
Gamma_19_8 0
Gamma_19_9 1.1129585130652409e+00
Gamma_19_10 0
Gamma_19_11 0
Gamma_19_12 0
Gamma_19_13 0
Gamma_19_14 0
Gamma_19_15 0
Gamma_19_16 0
Gamma_19_17 0
Gamma_19_18 0
Gamma_19_19 1.4254225007175612e+00
Gamma_19_20 0
Gamma_19_21 0
Gamma_19_22 0
Gamma_19_23 0
Gamma_19_24 0
Gamma_19_25 0
Gamma_19_26 0
Gamma_20_0 6.7866314152312712e-01
Gamma_20_1 0
Gamma_20_2 -4.8405072939662147e-01
Gamma_20_3 0
Gamma_20_4 0
Gamma_20_5 0
Gamma_20_6 -4.3700580335656031e-01
Gamma_20_7 0
Gamma_20_8 0
Gamma_20_9 0
Gamma_20_10 0
Gamma_20_11 0
Gamma_20_12 0
Gamma_20_13 0
Gamma_20_14 0
Gamma_20_15 0
Gamma_20_16 0
Gamma_20_17 0
Gamma_20_18 0
Gamma_20_19 0
Gamma_20_20 8.0863959556960940e-01
Gamma_20_21 0
Gamma_20_22 0
Gamma_20_23 0
Gamma_20_24 0
Gamma_20_25 0
Gamma_20_26 0
Gamma_21_0 -7.8898118872374690e-01
Gamma_21_1 1.1025105399980013e+00
Gamma_21_2 0
Gamma_21_3 0
Gamma_21_4 0
Gamma_21_5 0
Gamma_21_6 0
Gamma_21_7 0
Gamma_21_8 0
Gamma_21_9 0
Gamma_21_10 1.0808743102759937e+00
Gamma_21_11 0
Gamma_21_12 0
Gamma_21_13 0
Gamma_21_14 0
Gamma_21_15 0
Gamma_21_16 0
Gamma_21_17 0
Gamma_21_18 0
Gamma_21_19 0
Gamma_21_20 0
Gamma_21_21 1.3787792998406867e+00
Gamma_21_22 0
Gamma_21_23 0
Gamma_21_24 0
Gamma_21_25 0
Gamma_21_26 0
Gamma_22_0 1.0906379131928776e+00
Gamma_22_1 0
Gamma_22_2 0
Gamma_22_3 0
Gamma_22_4 0
Gamma_22_5 0
Gamma_22_6 0
Gamma_22_7 0
Gamma_22_8 0
Gamma_22_9 0
Gamma_22_10 0
Gamma_22_11 0
Gamma_22_12 0
Gamma_22_13 0
Gamma_22_14 0
Gamma_22_15 0
Gamma_22_16 0
Gamma_22_17 0
Gamma_22_18 0
Gamma_22_19 0
Gamma_22_20 0
Gamma_22_21 0
Gamma_22_22 1.4008799789995889e+00
Gamma_22_23 0
Gamma_22_24 0
Gamma_22_25 0
Gamma_22_26 0
Gamma_23_0 1.0266368296300290e+00
Gamma_23_1 0.874328761585816
Gamma_23_2 -8.0050714113844734e-01
Gamma_23_3 1.1303084193451012e+00
Gamma_23_4 0
Gamma_23_5 -1.1043552505057839e+00
Gamma_23_6 0
Gamma_23_7 -8.5803982836903847e-01
Gamma_23_8 0
Gamma_23_9 0
Gamma_23_10 0
Gamma_23_11 1.1972348947854277e+00
Gamma_23_12 0
Gamma_23_13 0
Gamma_23_14 0
Gamma_23_15 0
Gamma_23_16 0
Gamma_23_17 0
Gamma_23_18 0
Gamma_23_19 0
Gamma_23_20 0
Gamma_23_21 0
Gamma_23_22 0
Gamma_23_23 1.4129691359045609e+00
Gamma_23_24 0
Gamma_23_25 0
Gamma_23_26 0
Gamma_24_0 1.1186042828551488e+00
Gamma_24_1 0
Gamma_24_2 0
Gamma_24_3 0
Gamma_24_4 0.834487307296175
Gamma_24_5 0
Gamma_24_6 0
Gamma_24_7 0
Gamma_24_8 0
Gamma_24_9 0
Gamma_24_10 0
Gamma_24_11 0
Gamma_24_12 0
Gamma_24_13 0
Gamma_24_14 0
Gamma_24_15 0
Gamma_24_16 0
Gamma_24_17 0
Gamma_24_18 0
Gamma_24_19 0
Gamma_24_20 0
Gamma_24_21 0
Gamma_24_22 0
Gamma_24_23 0
Gamma_24_24 1.4281577701988104e+00
Gamma_24_25 0
Gamma_24_26 0
Gamma_25_0 7.5224398798693537e-01
Gamma_25_1 -7.4591110684523720e-01
Gamma_25_2 0
Gamma_25_3 0
Gamma_25_4 0
Gamma_25_5 0
Gamma_25_6 0
Gamma_25_7 0
Gamma_25_8 0
Gamma_25_9 0
Gamma_25_10 0
Gamma_25_11 0
Gamma_25_12 7.4219207688220112e-01
Gamma_25_13 0
Gamma_25_14 0
Gamma_25_15 0
Gamma_25_16 0
Gamma_25_17 0
Gamma_25_18 0
Gamma_25_19 0
Gamma_25_20 0
Gamma_25_21 0
Gamma_25_22 0
Gamma_25_23 0
Gamma_25_24 0
Gamma_25_25 9.8344687006736375e-01
Gamma_25_26 0
Gamma_26_0 8.4191320645514856e-01
Gamma_26_1 0
Gamma_26_2 8.1456846349371048e-01
Gamma_26_3 0
Gamma_26_4 0
Gamma_26_5 0
Gamma_26_6 0
Gamma_26_7 0
Gamma_26_8 -8.3122300157119522e-01
Gamma_26_9 0
Gamma_26_10 0
Gamma_26_11 0
Gamma_26_12 0
Gamma_26_13 0
Gamma_26_14 0
Gamma_26_15 0
Gamma_26_16 0
Gamma_26_17 0
Gamma_26_18 0
Gamma_26_19 0
Gamma_26_20 0
Gamma_26_21 0
Gamma_26_22 0
Gamma_26_23 0
Gamma_26_24 0
Gamma_26_25 0
Gamma_26_26 1.3965857543752473e+00
psi_0 4
psi_1 3
psi_2 3
psi_3 2
psi_4 2
psi_5 2
psi_6 1
psi_7 1
psi_8 1
psi_9 1
psi_10 1
psi_11 1
psi_12 1
psi_13 0
psi_14 0
psi_15 0
psi_16 0
psi_17 0
psi_18 0
psi_19 0
psi_20 0
psi_21 0
psi_22 0
psi_23 0
psi_24 0
psi_25 0
psi_26 0
g_0_0 0
g_0_1 0
g_0_2 0
g_0_3 0
g_0_4 0
g_0_5 0
g_0_6 0
g_0_7 0
g_0_8 0
g_0_9 0
g_0_10 0
g_0_11 0
g_0_12 0
g_0_13 0
g_0_14 0
g_0_15 0
g_0_16 0
g_0_17 0
g_0_18 0
g_0_19 0
g_0_20 0
g_0_21 0
g_0_22 0
g_0_23 0
g_0_24 0
g_0_25 0
g_0_26 0
g_1_0 0
g_1_1 0
g_1_2 0
g_1_3 0
g_1_4 0
g_1_5 0
g_1_6 0
g_1_7 0
g_1_8 0
g_1_9 0
g_1_10 0
g_1_11 0
g_1_12 0
g_1_13 0
g_1_14 0
g_1_15 0
g_1_16 0
g_1_17 0
g_1_18 0
g_1_19 0
g_1_20 0
g_1_21 0
g_1_22 0
g_1_23 0
g_1_24 0
g_1_25 0
g_1_26 0
g_2_0 1
g_2_1 0
g_2_2 0
g_2_3 0
g_2_4 0
g_2_5 0
g_2_6 0
g_2_7 0
g_2_8 0
g_2_9 0
g_2_10 0
g_2_11 0
g_2_12 0
g_2_13 0
g_2_14 0
g_2_15 0
g_2_16 0
g_2_17 0
g_2_18 0
g_2_19 0
g_2_20 0
g_2_21 0
g_2_22 0
g_2_23 0
g_2_24 0
g_2_25 0
g_2_26 0
g_3_0 1
g_3_1 1
g_3_2 0
g_3_3 0
g_3_4 0
g_3_5 0
g_3_6 0
g_3_7 0
g_3_8 0
g_3_9 0
g_3_10 0
g_3_11 0
g_3_12 0
g_3_13 0
g_3_14 0
g_3_15 0
g_3_16 0
g_3_17 0
g_3_18 0
g_3_19 0
g_3_20 0
g_3_21 0
g_3_22 0
g_3_23 0
g_3_24 0
g_3_25 0
g_3_26 0
g_4_0 1
g_4_1 0
g_4_2 0
g_4_3 0
g_4_4 0
g_4_5 0
g_4_6 0
g_4_7 0
g_4_8 0
g_4_9 0
g_4_10 0
g_4_11 0
g_4_12 0
g_4_13 0
g_4_14 0
g_4_15 0
g_4_16 0
g_4_17 0
g_4_18 0
g_4_19 0
g_4_20 0
g_4_21 0
g_4_22 0
g_4_23 0
g_4_24 0
g_4_25 0
g_4_26 0
g_5_0 1
g_5_1 1
g_5_2 1
g_5_3 0
g_5_4 0
g_5_5 0
g_5_6 0
g_5_7 0
g_5_8 0
g_5_9 0
g_5_10 0
g_5_11 0
g_5_12 0
g_5_13 0
g_5_14 0
g_5_15 0
g_5_16 0
g_5_17 0
g_5_18 0
g_5_19 0
g_5_20 0
g_5_21 0
g_5_22 0
g_5_23 0
g_5_24 0
g_5_25 0
g_5_26 0
g_6_0 1
g_6_1 0
g_6_2 0
g_6_3 0
g_6_4 0
g_6_5 0
g_6_6 0
g_6_7 0
g_6_8 0
g_6_9 0
g_6_10 0
g_6_11 0
g_6_12 0
g_6_13 0
g_6_14 0
g_6_15 0
g_6_16 0
g_6_17 0
g_6_18 0
g_6_19 0
g_6_20 0
g_6_21 0
g_6_22 0
g_6_23 0
g_6_24 0
g_6_25 0
g_6_26 0
g_7_0 1
g_7_1 1
g_7_2 0
g_7_3 1
g_7_4 0
g_7_5 0
g_7_6 0
g_7_7 0
g_7_8 0
g_7_9 0
g_7_10 0
g_7_11 0
g_7_12 0
g_7_13 0
g_7_14 0
g_7_15 0
g_7_16 0
g_7_17 0
g_7_18 0
g_7_19 0
g_7_20 0
g_7_21 0
g_7_22 0
g_7_23 0
g_7_24 0
g_7_25 0
g_7_26 0
g_8_0 1
g_8_1 0
g_8_2 1
g_8_3 0
g_8_4 0
g_8_5 0
g_8_6 0
g_8_7 0
g_8_8 0
g_8_9 0
g_8_10 0
g_8_11 0
g_8_12 0
g_8_13 0
g_8_14 0
g_8_15 0
g_8_16 0
g_8_17 0
g_8_18 0
g_8_19 0
g_8_20 0
g_8_21 0
g_8_22 0
g_8_23 0
g_8_24 0
g_8_25 0
g_8_26 0
g_9_0 1
g_9_1 1
g_9_2 0
g_9_3 0
g_9_4 1
g_9_5 0
g_9_6 0
g_9_7 0
g_9_8 0
g_9_9 0
g_9_10 0
g_9_11 0
g_9_12 0
g_9_13 0
g_9_14 0
g_9_15 0
g_9_16 0
g_9_17 0
g_9_18 0
g_9_19 0
g_9_20 0
g_9_21 0
g_9_22 0
g_9_23 0
g_9_24 0
g_9_25 0
g_9_26 0
g_10_0 1
g_10_1 0
g_10_2 0
g_10_3 0
g_10_4 0
g_10_5 0
g_10_6 0
g_10_7 0
g_10_8 0
g_10_9 0
g_10_10 0
g_10_11 0
g_10_12 0
g_10_13 0
g_10_14 0
g_10_15 0
g_10_16 0
g_10_17 0
g_10_18 0
g_10_19 0
g_10_20 0
g_10_21 0
g_10_22 0
g_10_23 0
g_10_24 0
g_10_25 0
g_10_26 0
g_11_0 1
g_11_1 1
g_11_2 1
g_11_3 1
g_11_4 0
g_11_5 1
g_11_6 0
g_11_7 0
g_11_8 0
g_11_9 0
g_11_10 0
g_11_11 0
g_11_12 0
g_11_13 0
g_11_14 0
g_11_15 0
g_11_16 0
g_11_17 0
g_11_18 0
g_11_19 0
g_11_20 0
g_11_21 0
g_11_22 0
g_11_23 0
g_11_24 0
g_11_25 0
g_11_26 0
g_12_0 1
g_12_1 0
g_12_2 0
g_12_3 0
g_12_4 0
g_12_5 0
g_12_6 0
g_12_7 0
g_12_8 0
g_12_9 0
g_12_10 0
g_12_11 0
g_12_12 0
g_12_13 0
g_12_14 0
g_12_15 0
g_12_16 0
g_12_17 0
g_12_18 0
g_12_19 0
g_12_20 0
g_12_21 0
g_12_22 0
g_12_23 0
g_12_24 0
g_12_25 0
g_12_26 0
g_13_0 1
g_13_1 1
g_13_2 0
g_13_3 0
g_13_4 0
g_13_5 0
g_13_6 1
g_13_7 0
g_13_8 0
g_13_9 0
g_13_10 0
g_13_11 0
g_13_12 0
g_13_13 0
g_13_14 0
g_13_15 0
g_13_16 0
g_13_17 0
g_13_18 0
g_13_19 0
g_13_20 0
g_13_21 0
g_13_22 0
g_13_23 0
g_13_24 0
g_13_25 0
g_13_26 0
g_14_0 1
g_14_1 0
g_14_2 1
g_14_3 0
g_14_4 1
g_14_5 0
g_14_6 0
g_14_7 0
g_14_8 0
g_14_9 0
g_14_10 0
g_14_11 0
g_14_12 0
g_14_13 0
g_14_14 0
g_14_15 0
g_14_16 0
g_14_17 0
g_14_18 0
g_14_19 0
g_14_20 0
g_14_21 0
g_14_22 0
g_14_23 0
g_14_24 0
g_14_25 0
g_14_26 0
g_15_0 1
g_15_1 1
g_15_2 0
g_15_3 1
g_15_4 0
g_15_5 0
g_15_6 0
g_15_7 1
g_15_8 0
g_15_9 0
g_15_10 0
g_15_11 0
g_15_12 0
g_15_13 0
g_15_14 0
g_15_15 0
g_15_16 0
g_15_17 0
g_15_18 0
g_15_19 0
g_15_20 0
g_15_21 0
g_15_22 0
g_15_23 0
g_15_24 0
g_15_25 0
g_15_26 0
g_16_0 1
g_16_1 0
g_16_2 0
g_16_3 0
g_16_4 0
g_16_5 0
g_16_6 0
g_16_7 0
g_16_8 0
g_16_9 0
g_16_10 0
g_16_11 0
g_16_12 0
g_16_13 0
g_16_14 0
g_16_15 0
g_16_16 0
g_16_17 0
g_16_18 0
g_16_19 0
g_16_20 0
g_16_21 0
g_16_22 0
g_16_23 0
g_16_24 0
g_16_25 0
g_16_26 0
g_17_0 1
g_17_1 1
g_17_2 1
g_17_3 0
g_17_4 0
g_17_5 1
g_17_6 0
g_17_7 0
g_17_8 1
g_17_9 0
g_17_10 0
g_17_11 0
g_17_12 0
g_17_13 0
g_17_14 0
g_17_15 0
g_17_16 0
g_17_17 0
g_17_18 0
g_17_19 0
g_17_20 0
g_17_21 0
g_17_22 0
g_17_23 0
g_17_24 0
g_17_25 0
g_17_26 0
g_18_0 1
g_18_1 0
g_18_2 0
g_18_3 0
g_18_4 0
g_18_5 0
g_18_6 0
g_18_7 0
g_18_8 0
g_18_9 0
g_18_10 0
g_18_11 0
g_18_12 0
g_18_13 0
g_18_14 0
g_18_15 0
g_18_16 0
g_18_17 0
g_18_18 0
g_18_19 0
g_18_20 0
g_18_21 0
g_18_22 0
g_18_23 0
g_18_24 0
g_18_25 0
g_18_26 0
g_19_0 1
g_19_1 1
g_19_2 0
g_19_3 1
g_19_4 1
g_19_5 0
g_19_6 0
g_19_7 0
g_19_8 0
g_19_9 1
g_19_10 0
g_19_11 0
g_19_12 0
g_19_13 0
g_19_14 0
g_19_15 0
g_19_16 0
g_19_17 0
g_19_18 0
g_19_19 0
g_19_20 0
g_19_21 0
g_19_22 0
g_19_23 0
g_19_24 0
g_19_25 0
g_19_26 0
g_20_0 1
g_20_1 0
g_20_2 1
g_20_3 0
g_20_4 0
g_20_5 0
g_20_6 1
g_20_7 0
g_20_8 0
g_20_9 0
g_20_10 0
g_20_11 0
g_20_12 0
g_20_13 0
g_20_14 0
g_20_15 0
g_20_16 0
g_20_17 0
g_20_18 0
g_20_19 0
g_20_20 0
g_20_21 0
g_20_22 0
g_20_23 0
g_20_24 0
g_20_25 0
g_20_26 0
g_21_0 1
g_21_1 1
g_21_2 0
g_21_3 0
g_21_4 0
g_21_5 0
g_21_6 0
g_21_7 0
g_21_8 0
g_21_9 0
g_21_10 1
g_21_11 0
g_21_12 0
g_21_13 0
g_21_14 0
g_21_15 0
g_21_16 0
g_21_17 0
g_21_18 0
g_21_19 0
g_21_20 0
g_21_21 0
g_21_22 0
g_21_23 0
g_21_24 0
g_21_25 0
g_21_26 0
g_22_0 1
g_22_1 0
g_22_2 0
g_22_3 0
g_22_4 0
g_22_5 0
g_22_6 0
g_22_7 0
g_22_8 0
g_22_9 0
g_22_10 0
g_22_11 0
g_22_12 0
g_22_13 0
g_22_14 0
g_22_15 0
g_22_16 0
g_22_17 0
g_22_18 0
g_22_19 0
g_22_20 0
g_22_21 0
g_22_22 0
g_22_23 0
g_22_24 0
g_22_25 0
g_22_26 0
g_23_0 1
g_23_1 1
g_23_2 1
g_23_3 1
g_23_4 0
g_23_5 1
g_23_6 0
g_23_7 1
g_23_8 0
g_23_9 0
g_23_10 0
g_23_11 1
g_23_12 0
g_23_13 0
g_23_14 0
g_23_15 0
g_23_16 0
g_23_17 0
g_23_18 0
g_23_19 0
g_23_20 0
g_23_21 0
g_23_22 0
g_23_23 0
g_23_24 0
g_23_25 0
g_23_26 0
g_24_0 1
g_24_1 0
g_24_2 0
g_24_3 0
g_24_4 1
g_24_5 0
g_24_6 0
g_24_7 0
g_24_8 0
g_24_9 0
g_24_10 0
g_24_11 0
g_24_12 0
g_24_13 0
g_24_14 0
g_24_15 0
g_24_16 0
g_24_17 0
g_24_18 0
g_24_19 0
g_24_20 0
g_24_21 0
g_24_22 0
g_24_23 0
g_24_24 0
g_24_25 0
g_24_26 0
g_25_0 1
g_25_1 1
g_25_2 0
g_25_3 0
g_25_4 0
g_25_5 0
g_25_6 0
g_25_7 0
g_25_8 0
g_25_9 0
g_25_10 0
g_25_11 0
g_25_12 1
g_25_13 0
g_25_14 0
g_25_15 0
g_25_16 0
g_25_17 0
g_25_18 0
g_25_19 0
g_25_20 0
g_25_21 0
g_25_22 0
g_25_23 0
g_25_24 0
g_25_25 0
g_25_26 0
g_26_0 1
g_26_1 0
g_26_2 1
g_26_3 0
g_26_4 0
g_26_5 0
g_26_6 0
g_26_7 0
g_26_8 1
g_26_9 0
g_26_10 0
g_26_11 0
g_26_12 0
g_26_13 0
g_26_14 0
g_26_15 0
g_26_16 0
g_26_17 0
g_26_18 0
g_26_19 0
g_26_20 0
g_26_21 0
g_26_22 0
g_26_23 0
g_26_24 0
g_26_25 0
g_26_26 0
T_0 3.5946105409248191e-01
T_1 -2.1437087309709404e-01
T_2 3.1073689231336610e-01
T_3 1.0444596191933925e-03
T_4 3.5592299825585366e-01
T_5 -2.0698834828862098e-01
T_6 -2.1420654466185143e-01
T_7 3.0604235631870015e-02
T_8 -3.5270613968246156e-02
T_9 -2.2725479184752173e-01
T_10 -0.263401013376843
T_11 3.1504490397305540e-01
T_12 3.3690104836468932e-01
T_13 3.3965636862305287e-01
T_14 0.000740172665357734
T_15 -5.3517299437973731e-03
T_16 -1.9093615466698109e-02
T_17 2.1825458745560369e-02
T_18 -2.4925464694373803e-01
T_19 3.5446826150724825e-01
T_20 -2.1240195491894662e-01
T_21 3.2119854237749929e-01
T_22 3.3710059559063732e-01
T_23 3.4569326050881249e-01
T_24 3.5638534114705905e-01
T_25 -1.6691663896044661e-02
T_26 3.3403051115956489e-01
